p tw 57 6841 2 
1 3 
1 4 
1 5 
1 6 
1 7 
1 8 
1 9 
1 10 
1 11 
1 12 
1 13 
1 14 
1 15 
1 16 
1 17 
1 24 
1 27 
1 35 
1 41 
1 45 
1 46 
1 55 
1 57 
2 3 
2 4 
2 5 
2 6 
2 7 
2 8 
2 9 
2 10 
2 15 
2 18 
2 19 
2 20 
2 21 
2 22 
2 23 
2 24 
2 30 
2 32 
2 42 
2 45 
2 51 
2 53 
2 54 
3 4 
3 5 
3 6 
3 7 
3 8 
3 9 
3 11 
3 12 
3 18 
3 19 
3 25 
3 26 
3 27 
3 28 
3 29 
3 30 
3 37 
3 38 
3 39 
3 40 
3 41 
3 42 
4 5 
4 6 
4 7 
4 8 
4 9 
4 11 
4 16 
4 19 
4 24 
4 26 
4 31 
4 32 
4 33 
4 34 
4 35 
4 36 
4 40 
4 44 
4 48 
4 53 
4 56 
5 6 
5 7 
5 8 
5 9 
5 13 
5 16 
5 20 
5 23 
5 25 
5 29 
5 31 
5 33 
5 37 
5 38 
5 43 
5 44 
5 45 
5 52 
5 54 
5 55 
6 7 
6 8 
6 9 
6 14 
6 17 
6 20 
6 21 
6 26 
6 30 
6 32 
6 34 
6 38 
6 40 
6 43 
6 46 
6 47 
6 49 
6 52 
6 57 
7 8 
7 9 
7 14 
7 15 
7 18 
7 22 
7 27 
7 33 
7 36 
7 37 
7 39 
7 43 
7 48 
7 49 
7 50 
7 54 
7 56 
7 57 
8 9 
8 10 
8 12 
8 23 
8 25 
8 28 
8 31 
8 34 
8 42 
8 46 
8 47 
8 48 
8 49 
8 50 
8 51 
8 55 
8 56 
9 13 
9 17 
9 21 
9 22 
9 28 
9 29 
9 35 
9 36 
9 39 
9 41 
9 44 
9 47 
9 50 
9 51 
9 52 
9 53 
10 11 
10 12 
10 13 
10 14 
10 15 
10 16 
10 17 
10 18 
10 19 
10 20 
10 21 
10 22 
10 23 
10 24 
10 28 
10 31 
10 42 
10 47 
10 49 
10 55 
10 56 
11 12 
11 13 
11 14 
11 15 
11 16 
11 17 
11 18 
11 19 
11 25 
11 26 
11 27 
11 28 
11 29 
11 30 
11 31 
11 32 
11 33 
11 34 
11 35 
11 36 
12 13 
12 14 
12 15 
12 16 
12 17 
12 19 
12 23 
12 25 
12 34 
12 37 
12 38 
12 39 
12 40 
12 41 
12 42 
12 46 
12 48 
12 50 
12 51 
13 14 
13 15 
13 16 
13 17 
13 20 
13 21 
13 25 
13 28 
13 31 
13 35 
13 37 
13 39 
13 43 
13 44 
13 45 
13 50 
13 52 
13 53 
14 15 
14 16 
14 17 
14 18 
14 21 
14 26 
14 32 
14 36 
14 37 
14 38 
14 43 
14 46 
14 47 
14 50 
14 54 
14 56 
14 57 
15 16 
15 17 
15 22 
15 27 
15 30 
15 32 
15 33 
15 39 
15 42 
15 43 
15 45 
15 48 
15 49 
15 51 
15 53 
15 54 
16 17 
16 23 
16 24 
16 26 
16 29 
16 33 
16 38 
16 40 
16 44 
16 48 
16 52 
16 53 
16 54 
16 55 
16 56 
17 20 
17 22 
17 29 
17 30 
17 34 
17 36 
17 40 
17 41 
17 44 
17 47 
17 49 
17 51 
17 52 
17 57 
18 19 
18 20 
18 21 
18 22 
18 23 
18 24 
18 25 
18 26 
18 27 
18 28 
18 29 
18 30 
18 36 
18 37 
18 50 
18 54 
18 56 
18 57 
19 20 
19 21 
19 22 
19 23 
19 24 
19 31 
19 32 
19 33 
19 34 
19 35 
19 36 
19 37 
19 38 
19 39 
19 40 
19 41 
19 42 
20 21 
20 22 
20 23 
20 24 
20 25 
20 30 
20 31 
20 34 
20 37 
20 40 
20 43 
20 44 
20 45 
20 49 
20 52 
20 57 
21 22 
21 23 
21 24 
21 26 
21 28 
21 32 
21 35 
21 38 
21 39 
21 43 
21 46 
21 47 
21 50 
21 52 
21 53 
22 23 
22 24 
22 27 
22 29 
22 33 
22 36 
22 39 
22 41 
22 43 
22 44 
22 47 
22 48 
22 49 
22 51 
23 24 
23 25 
23 29 
23 33 
23 34 
23 38 
23 46 
23 48 
23 50 
23 51 
23 52 
23 54 
23 55 
24 26 
24 27 
24 35 
24 40 
24 41 
24 44 
24 45 
24 46 
24 48 
24 53 
24 55 
24 56 
24 57 
25 26 
25 27 
25 28 
25 29 
25 30 
25 31 
25 34 
25 37 
25 43 
25 44 
25 45 
25 46 
25 48 
25 50 
25 51 
26 27 
26 28 
26 29 
26 30 
26 32 
26 38 
26 40 
26 43 
26 44 
26 46 
26 47 
26 48 
26 53 
26 56 
27 28 
27 29 
27 30 
27 33 
27 35 
27 39 
27 41 
27 43 
27 45 
27 46 
27 48 
27 49 
27 55 
27 57 
28 29 
28 30 
28 31 
28 35 
28 39 
28 42 
28 47 
28 49 
28 50 
28 52 
28 53 
28 55 
28 56 
29 30 
29 33 
29 36 
29 38 
29 41 
29 44 
29 47 
29 51 
29 52 
29 54 
29 55 
30 32 
30 34 
30 40 
30 42 
30 45 
30 49 
30 51 
30 52 
30 53 
30 54 
30 57 
31 32 
31 33 
31 34 
31 35 
31 36 
31 37 
31 42 
31 43 
31 44 
31 45 
31 47 
31 49 
31 55 
31 56 
32 33 
32 34 
32 35 
32 36 
32 38 
32 42 
32 43 
32 45 
32 46 
32 47 
32 51 
32 53 
32 54 
33 34 
33 35 
33 36 
33 38 
33 39 
33 43 
33 48 
33 49 
33 52 
33 54 
33 55 
34 35 
34 36 
34 40 
34 46 
34 48 
34 49 
34 50 
34 51 
34 52 
34 57 
35 36 
35 39 
35 41 
35 45 
35 46 
35 50 
35 52 
35 53 
35 55 
35 57 
36 37 
36 41 
36 44 
36 47 
36 50 
36 51 
36 54 
36 56 
36 57 
37 38 
37 39 
37 40 
37 41 
37 42 
37 43 
37 44 
37 45 
37 50 
37 54 
37 56 
37 57 
38 39 
38 40 
38 41 
38 42 
38 43 
38 46 
38 47 
38 52 
38 54 
38 55 
39 40 
39 41 
39 42 
39 43 
39 48 
39 49 
39 50 
39 52 
39 53 
40 41 
40 42 
40 44 
40 48 
40 49 
40 52 
40 53 
40 56 
40 57 
41 42 
41 44 
41 45 
41 46 
41 47 
41 51 
41 55 
41 57 
42 45 
42 47 
42 49 
42 51 
42 53 
42 54 
42 55 
42 56 
43 44 
43 45 
43 46 
43 47 
43 48 
43 49 
44 45 
44 47 
44 48 
44 51 
44 53 
44 56 
45 46 
45 51 
45 53 
45 54 
45 55 
45 57 
46 47 
46 48 
46 50 
46 51 
46 55 
46 57 
47 49 
47 51 
47 55 
47 56 
48 49 
48 50 
48 51 
48 53 
48 56 
49 52 
49 55 
49 56 
49 57 
50 51 
50 52 
50 53 
50 54 
50 56 
50 57 
51 53 
51 54 
52 53 
52 54 
52 55 
52 57 
53 54 
53 56 
54 55 
54 56 
54 57 
55 56 
55 57 
56 57 
